
molecule sam_cytosine {
  0 1
  S     0.0000 0.0000 0.0000
  C     1.8000 0.0000 0.0000
  H     2.2000 0.8900 0.0000
  H     2.2000 -0.4450 0.7710
  H     2.2000 -0.4450 -0.7710
  N    -2.0000 0.0000 0.0000
  C    -2.6000 1.2000 0.0000
  N    -3.9000 1.2000 0.0000
  C    -4.5000 0.0000 0.0000
  C    -3.9000 -1.2000 0.0000
  C    -2.6000 -1.2000 0.0000
  H    -2.1000 2.1000 0.0000
  H    -5.6000 0.0000 0.0000
  H    -4.4000 -2.1000 0.0000
  H    -2.1000 -2.1000 0.0000
  N    -0.8000 0.0000 0.0000
}

set {
  basis          6-31G*
  scf_type       pk
  reference      rhf
  cubeprop_tasks ['orbitals']
  guess          sad
  e_convergence  1e-8
  d_convergence  1e-8
}

energy('hf')
